# Solution for model GasLib-40
# Objective value = 10.4241277799896
loadshed[innode_1] 0
loadshed[innode_2] 0
loadshed[innode_3] 0
loadshed[innode_4] 0
loadshed[innode_5] 0
loadshed[innode_6] 0
loadshed[innode_7] 0
loadshed[innode_8] 0
loadshed[source_1] -0.238990541590834
loadshed[source_2] -6.6520663457420248e-02
loadshed[source_3] 3.7144902188628470e-01
loadshed[sink_1] 0
loadshed[sink_2] 0
loadshed[sink_3] 0
loadshed[sink_4] 0
loadshed[sink_5] 0
loadshed[sink_6] 0
loadshed[sink_7] 0
loadshed[sink_8] 0
loadshed[sink_9] 0
loadshed[sink_10] 0
loadshed[sink_11] 0
loadshed[sink_12] 6.3739889610127487e-01
loadshed[sink_13] 0
loadshed[sink_14] 0
loadshed[sink_15] 0
loadshed[sink_16] 0
loadshed[sink_17] 0
loadshed[sink_18] 0
loadshed[sink_19] 0
loadshed[sink_20] 0
loadshed[sink_21] 0
loadshed[sink_22] 0
loadshed[sink_23] 0
loadshed[sink_24] 0
loadshed[sink_25] 0
loadshed[sink_26] 0
loadshed[sink_27] 0
loadshed[sink_28] 0
loadshed[sink_29] 0
flow[source_1,sink_3] 1.9587235888413426e+02
flow[innode_1,sink_16] 1.6354166666666970e+01
flow[innode_6,sink_13] 1.5111367939175771e+01
flow[sink_13,sink_14] -1.2427987274908965e+00
flow[sink_14,sink_10] -1.7596965394157564e+01
flow[sink_25,sink_26] 1.7598971409716967e+02
flow[sink_26,sink_9] 1.2199392580535479e+02
flow[sink_9,sink_18] 1.0563975913868812e+02
flow[sink_26,sink_4] 3.7641621625148218e+01
flow[sink_4,sink_20] 0
flow[sink_18,sink_6] 8.9285592472021449e+01
flow[sink_25,innode_8] -1.6316402555079787e+02
flow[sink_6,sink_7] 4.0223092472022017e+01
flow[sink_6,sink_22] 3.2708333333333641e+01
flow[sink_7,sink_24] 38.6383722200104
flow[sink_22,sink_1] 1.6354166666666970e+01
flow[sink_24,sink_21] 2.2284205553343735e+01
flow[sink_21,sink_12] 5.9300388866770684e+00
flow[sink_7,sink_5] -1.4769446414655604e+01
flow[sink_5,sink_17] -3.1123613081322219e+01
flow[sink_17,sink_4] -2.1287454958481533e+01
flow[sink_17,sink_8] -2.6190324789507560e+01
flow[sink_3,sink_23] 16.3541666666697
flow[sink_8,sink_20] -4.2544491456174228e+01
flow[sink_25,sink_20] 5.8898658122840970e+01
flow[sink_25,sink_15] -1.0318988127505554e+02
flow[sink_15,sink_29] -6.6204084080520147e+01
flow[sink_29,sink_28] 1.6354166666667879e+01
flow[sink_29,sink_2] 6.9694130527868765e+01
flow[sink_2,sink_15] 5.3339963861202023e+01
flow[sink_29,innode_7] -1.6860654794172342e+02
flow[innode_4,sink_19] 0
flow[sink_19,innode_3] 0
flow[innode_4,innode_5] 9.9367798727491163e+01
flow[sink_27,innode_5] -9.9367798727491163e+01
flow[sink_27,sink_19] 8.3013632060824577e+01
flow[sink_10,sink_11] 3.2708333333333641e+01
flow[sink_10,innode_2] -66.6594653941579
flow[sink_10,innode_3] 0
flow[innode_6,sink_25] -1.5111367939175771e+01
flow[sink_11,innode_1] 1.6354166666666970e+01
flow[sink_19,innode_2] 66.6594653941579
flow[source_3,innode_4] 9.9367798727491163e+01
flow[source_2,innode_7] 1.6860654794172342e+02
flow[sink_3,innode_8] 1.6316402555079787e+02
pressure[innode_1] 7.4663067771271116e+01
pressure[innode_2] 78.3379971375648
pressure[innode_3] 78.3379971375648
pressure[innode_4] 81.01325
pressure[innode_5] 8.0944899588354971e+01
pressure[innode_6] 7.4063539676358175e+01
pressure[innode_7] 81.01325
pressure[innode_8] 8.0358523530203570e+01
pressure[source_1] 81.01325
pressure[source_2] 81.01325
pressure[source_3] 81.01325
pressure[sink_1] 4.6059406034611669e+01
pressure[sink_2] 7.4738254377083749e+01
pressure[sink_3] 8.0358523530203570e+01
pressure[sink_4] 5.6882834271234948e+01
pressure[sink_5] 5.3750813729313172e+01
pressure[sink_6] 4.8160483644999040e+01
pressure[sink_7] 4.7608316462699470e+01
pressure[sink_8] 5.7057526931033529e+01
pressure[sink_9] 5.4367036148416311e+01
pressure[sink_10] 7.4814769078874662e+01
pressure[sink_11] 7.4663067771271116e+01
pressure[sink_12] 1.0132499999999998e+00
pressure[sink_13] 7.3980233230253688e+01
pressure[sink_14] 7.3982457324439579e+01
pressure[sink_15] 7.4564111151015609e+01
pressure[sink_16] 7.3641417936453436e+01
pressure[sink_17] 5.6069297935934749e+01
pressure[sink_18] 5.0544674802146375e+01
pressure[sink_19] 78.3379971375648
pressure[sink_20] 6.0022279670814193e+01
pressure[sink_21] 3.1234823881721705e+00
pressure[sink_22] 4.7123175176966676e+01
pressure[sink_23] 8.0193805518543783e+01
pressure[sink_24] 3.3702592601792265e+00
pressure[sink_25] 7.4063539676358175e+01
pressure[sink_26] 61.6686874655221
pressure[sink_27] 8.0120330470866151e+01
pressure[sink_28] 7.6208403084334421e+01
pressure[sink_29] 76.5036853579516
interdiction[source_1,sink_3] 0
interdiction[innode_1,sink_16] 0
interdiction[innode_6,sink_13] 0
interdiction[sink_13,sink_14] 0
interdiction[sink_14,sink_10] 0
interdiction[sink_25,sink_26] 0
interdiction[sink_26,sink_9] 0
interdiction[sink_9,sink_18] 0
interdiction[sink_26,sink_4] 0
interdiction[sink_4,sink_20] 1
interdiction[sink_18,sink_6] 0
interdiction[sink_25,innode_8] 0
interdiction[sink_6,sink_7] 0
interdiction[sink_6,sink_22] 0
interdiction[sink_7,sink_24] 0
interdiction[sink_22,sink_1] 0
interdiction[sink_24,sink_21] 0
interdiction[sink_21,sink_12] 0
interdiction[sink_7,sink_5] 0
interdiction[sink_5,sink_17] 0
interdiction[sink_17,sink_4] 0
interdiction[sink_17,sink_8] 0
interdiction[sink_3,sink_23] 0
interdiction[sink_8,sink_20] 0
interdiction[sink_25,sink_20] 0
interdiction[sink_25,sink_15] 0
interdiction[sink_15,sink_29] 0
interdiction[sink_29,sink_28] 0
interdiction[sink_29,sink_2] 0
interdiction[sink_2,sink_15] 0
interdiction[sink_29,innode_7] 0
interdiction[innode_4,sink_19] 1
interdiction[sink_19,innode_3] 0
interdiction[innode_4,innode_5] 0
interdiction[sink_27,innode_5] 0
interdiction[sink_27,sink_19] 0
interdiction[sink_10,sink_11] 0
interdiction[sink_10,innode_2] 0
interdiction[sink_10,innode_3] 1
interdiction[innode_6,sink_25] 0
interdiction[sink_11,innode_1] 0
interdiction[sink_19,innode_2] 0
interdiction[source_3,innode_4] 0
interdiction[source_2,innode_7] 0
interdiction[sink_3,innode_8] 0
WCcheckFlow[source_1,sink_3] 39
WCcheckFlow[innode_1,sink_16] 1
WCcheckFlow[innode_6,sink_13] 13
WCcheckFlow[sink_13,sink_14] 12
WCcheckFlow[sink_14,sink_10] 11
WCcheckFlow[sink_25,sink_26] 15
WCcheckFlow[sink_26,sink_9] 13
WCcheckFlow[sink_9,sink_18] 12
WCcheckFlow[sink_26,sink_4] 1
WCcheckFlow[sink_4,sink_20] 0
WCcheckFlow[sink_18,sink_6] 11
WCcheckFlow[sink_25,innode_8] -36
WCcheckFlow[sink_6,sink_7] 8
WCcheckFlow[sink_6,sink_22] 2
WCcheckFlow[sink_7,sink_24] 3
WCcheckFlow[sink_22,sink_1] 1
WCcheckFlow[sink_24,sink_21] 2
WCcheckFlow[sink_21,sink_12] 1
WCcheckFlow[sink_7,sink_5] 4
WCcheckFlow[sink_5,sink_17] 3
WCcheckFlow[sink_17,sink_4] 0
WCcheckFlow[sink_17,sink_8] 2
WCcheckFlow[sink_3,sink_23] 1
WCcheckFlow[sink_8,sink_20] 1
WCcheckFlow[sink_25,sink_20] 0
WCcheckFlow[sink_25,sink_15] 6
WCcheckFlow[sink_15,sink_29] 5
WCcheckFlow[sink_29,sink_28] 1
WCcheckFlow[sink_29,sink_2] 1
WCcheckFlow[sink_2,sink_15] 0
WCcheckFlow[sink_29,innode_7] 2
WCcheckFlow[innode_4,sink_19] 0
WCcheckFlow[sink_19,innode_3] 1
WCcheckFlow[innode_4,innode_5] -2
WCcheckFlow[sink_27,innode_5] 3
WCcheckFlow[sink_27,sink_19] -4
WCcheckFlow[sink_10,sink_11] 3
WCcheckFlow[sink_10,innode_2] 7
WCcheckFlow[sink_10,innode_3] 0
WCcheckFlow[innode_6,sink_25] -14
WCcheckFlow[sink_11,innode_1] 2
WCcheckFlow[sink_19,innode_2] -6
WCcheckFlow[source_3,innode_4] -1
WCcheckFlow[source_2,innode_7] -1
WCcheckFlow[sink_3,innode_8] 37
